benchmarks_vrp/CMT3/min_c/CMT3_7.vrp
NAME: CMT3_7
TYPE: CVRP
COMMENT: 826.14 - Cluster Nr.7
DIMENSION: 15
CAPACITY: 200
EDGE_WEIGHT_TYPE: EUC_2D
NODE_COORD_TYPE: TWOD_COORDS
NODE_COORD_SECTION: 
3 20 40
9 6 38
2 11 31
4 20 26
8 27 43
10 5 30
5 35 35
14 22 27
1 10 43
6 14 37
12 15 30
15 25 30
11 26 35
13 26 27
7 17 34
DEPOT_SECTION: 
5
-1
DEMAND_SECTION: 
5 0
13 27
6 11
4 9
1 9
12 26
15 3
14 11
9 16
2 7
3 12
11 15
7 3
10 2
8 9
EOF
