benchmarks_vrp/CMT3/min_c/CMT3_7.tour
NAME: CMT3_7 solution
TYPE: TOUR
TOUR_SECTION:
5 8 3 7 6 1 9 10 2 12 4 14 13 15 11 -1
-1
EOF